certificates/rado_a15_c276_N58.cnf
c Rad2 upper bound instance: x1 + 15*x2 - x3 = 276, interval [1,58]
p cnf 58 446
1 10 19 0
-1 -10 -19 0
1 20 25 0
-1 -20 -25 0
1 21 40 0
-1 -21 -40 0
1 22 55 0
-1 -22 -55 0
2 11 19 0
-2 -11 -19 0
2 20 26 0
-2 -20 -26 0
2 21 41 0
-2 -21 -41 0
2 22 56 0
-2 -22 -56 0
3 12 19 0
-3 -12 -19 0
3 20 27 0
-3 -20 -27 0
3 21 42 0
-3 -21 -42 0
3 22 57 0
-3 -22 -57 0
4 13 19 0
-4 -13 -19 0
4 20 28 0
-4 -20 -28 0
4 21 43 0
-4 -21 -43 0
4 22 58 0
-4 -22 -58 0
5 14 19 0
-5 -14 -19 0
5 20 29 0
-5 -20 -29 0
5 21 44 0
-5 -21 -44 0
6 15 19 0
-6 -15 -19 0
6 20 30 0
-6 -20 -30 0
6 21 45 0
-6 -21 -45 0
1 7 18 0
-1 -7 -18 0
7 16 19 0
-7 -16 -19 0
7 20 31 0
-7 -20 -31 0
7 21 46 0
-7 -21 -46 0
2 8 18 0
-2 -8 -18 0
8 17 19 0
-8 -17 -19 0
8 20 32 0
-8 -20 -32 0
8 21 47 0
-8 -21 -47 0
3 9 18 0
-3 -9 -18 0
9 18 19 0
-9 -18 -19 0
9 20 33 0
-9 -20 -33 0
9 21 48 0
-9 -21 -48 0
4 10 18 0
-4 -10 -18 0
10 19 0
-10 -19 0
10 20 34 0
-10 -20 -34 0
10 21 49 0
-10 -21 -49 0
5 11 18 0
-5 -11 -18 0
11 19 20 0
-11 -19 -20 0
11 20 35 0
-11 -20 -35 0
11 21 50 0
-11 -21 -50 0
6 12 18 0
-6 -12 -18 0
12 19 21 0
-12 -19 -21 0
12 20 36 0
-12 -20 -36 0
12 21 51 0
-12 -21 -51 0
7 13 18 0
-7 -13 -18 0
13 19 22 0
-13 -19 -22 0
13 20 37 0
-13 -20 -37 0
13 21 52 0
-13 -21 -52 0
8 14 18 0
-8 -14 -18 0
14 19 23 0
-14 -19 -23 0
14 20 38 0
-14 -20 -38 0
14 21 53 0
-14 -21 -53 0
9 15 18 0
-9 -15 -18 0
15 19 24 0
-15 -19 -24 0
15 20 39 0
-15 -20 -39 0
15 21 54 0
-15 -21 -54 0
10 16 18 0
-10 -16 -18 0
16 19 25 0
-16 -19 -25 0
16 20 40 0
-16 -20 -40 0
16 21 55 0
-16 -21 -55 0
11 17 18 0
-11 -17 -18 0
17 19 26 0
-17 -19 -26 0
17 20 41 0
-17 -20 -41 0
17 21 56 0
-17 -21 -56 0
12 18 0
-12 -18 0
18 19 27 0
-18 -19 -27 0
18 20 42 0
-18 -20 -42 0
18 21 57 0
-18 -21 -57 0
13 18 19 0
-13 -18 -19 0
19 28 0
-19 -28 0
19 20 43 0
-19 -20 -43 0
19 21 58 0
-19 -21 -58 0
14 18 20 0
-14 -18 -20 0
19 20 29 0
-19 -20 -29 0
20 44 0
-20 -44 0
15 18 21 0
-15 -18 -21 0
19 21 30 0
-19 -21 -30 0
20 21 45 0
-20 -21 -45 0
1 17 22 0
-1 -17 -22 0
16 18 22 0
-16 -18 -22 0
19 22 31 0
-19 -22 -31 0
20 22 46 0
-20 -22 -46 0
2 17 23 0
-2 -17 -23 0
17 18 23 0
-17 -18 -23 0
19 23 32 0
-19 -23 -32 0
20 23 47 0
-20 -23 -47 0
3 17 24 0
-3 -17 -24 0
18 24 0
-18 -24 0
19 24 33 0
-19 -24 -33 0
20 24 48 0
-20 -24 -48 0
4 17 25 0
-4 -17 -25 0
18 19 25 0
-18 -19 -25 0
19 25 34 0
-19 -25 -34 0
20 25 49 0
-20 -25 -49 0
5 17 26 0
-5 -17 -26 0
18 20 26 0
-18 -20 -26 0
19 26 35 0
-19 -26 -35 0
20 26 50 0
-20 -26 -50 0
6 17 27 0
-6 -17 -27 0
18 21 27 0
-18 -21 -27 0
19 27 36 0
-19 -27 -36 0
20 27 51 0
-20 -27 -51 0
7 17 28 0
-7 -17 -28 0
18 22 28 0
-18 -22 -28 0
19 28 37 0
-19 -28 -37 0
20 28 52 0
-20 -28 -52 0
8 17 29 0
-8 -17 -29 0
18 23 29 0
-18 -23 -29 0
19 29 38 0
-19 -29 -38 0
20 29 53 0
-20 -29 -53 0
9 17 30 0
-9 -17 -30 0
18 24 30 0
-18 -24 -30 0
19 30 39 0
-19 -30 -39 0
20 30 54 0
-20 -30 -54 0
10 17 31 0
-10 -17 -31 0
18 25 31 0
-18 -25 -31 0
19 31 40 0
-19 -31 -40 0
20 31 55 0
-20 -31 -55 0
11 17 32 0
-11 -17 -32 0
18 26 32 0
-18 -26 -32 0
19 32 41 0
-19 -32 -41 0
20 32 56 0
-20 -32 -56 0
12 17 33 0
-12 -17 -33 0
18 27 33 0
-18 -27 -33 0
19 33 42 0
-19 -33 -42 0
20 33 57 0
-20 -33 -57 0
13 17 34 0
-13 -17 -34 0
18 28 34 0
-18 -28 -34 0
19 34 43 0
-19 -34 -43 0
20 34 58 0
-20 -34 -58 0
14 17 35 0
-14 -17 -35 0
18 29 35 0
-18 -29 -35 0
19 35 44 0
-19 -35 -44 0
15 17 36 0
-15 -17 -36 0
18 30 36 0
-18 -30 -36 0
19 36 45 0
-19 -36 -45 0
1 16 37 0
-1 -16 -37 0
16 17 37 0
-16 -17 -37 0
18 31 37 0
-18 -31 -37 0
19 37 46 0
-19 -37 -46 0
2 16 38 0
-2 -16 -38 0
17 38 0
-17 -38 0
18 32 38 0
-18 -32 -38 0
19 38 47 0
-19 -38 -47 0
3 16 39 0
-3 -16 -39 0
17 18 39 0
-17 -18 -39 0
18 33 39 0
-18 -33 -39 0
19 39 48 0
-19 -39 -48 0
4 16 40 0
-4 -16 -40 0
17 19 40 0
-17 -19 -40 0
18 34 40 0
-18 -34 -40 0
19 40 49 0
-19 -40 -49 0
5 16 41 0
-5 -16 -41 0
18 35 41 0
-18 -35 -41 0
19 41 50 0
-19 -41 -50 0
6 16 42 0
-6 -16 -42 0
17 21 42 0
-17 -21 -42 0
18 36 42 0
-18 -36 -42 0
19 42 51 0
-19 -42 -51 0
7 16 43 0
-7 -16 -43 0
17 22 43 0
-17 -22 -43 0
18 37 43 0
-18 -37 -43 0
19 43 52 0
-19 -43 -52 0
8 16 44 0
-8 -16 -44 0
17 23 44 0
-17 -23 -44 0
18 38 44 0
-18 -38 -44 0
19 44 53 0
-19 -44 -53 0
9 16 45 0
-9 -16 -45 0
17 24 45 0
-17 -24 -45 0
18 39 45 0
-18 -39 -45 0
19 45 54 0
-19 -45 -54 0
10 16 46 0
-10 -16 -46 0
17 25 46 0
-17 -25 -46 0
18 40 46 0
-18 -40 -46 0
19 46 55 0
-19 -46 -55 0
11 16 47 0
-11 -16 -47 0
17 26 47 0
-17 -26 -47 0
18 41 47 0
-18 -41 -47 0
19 47 56 0
-19 -47 -56 0
12 16 48 0
-12 -16 -48 0
17 27 48 0
-17 -27 -48 0
18 42 48 0
-18 -42 -48 0
19 48 57 0
-19 -48 -57 0
13 16 49 0
-13 -16 -49 0
17 28 49 0
-17 -28 -49 0
18 43 49 0
-18 -43 -49 0
19 49 58 0
-19 -49 -58 0
14 16 50 0
-14 -16 -50 0
17 29 50 0
-17 -29 -50 0
18 44 50 0
-18 -44 -50 0
15 16 51 0
-15 -16 -51 0
17 30 51 0
-17 -30 -51 0
18 45 51 0
-18 -45 -51 0
1 15 52 0
-1 -15 -52 0
16 52 0
-16 -52 0
17 31 52 0
-17 -31 -52 0
18 46 52 0
-18 -46 -52 0
2 15 53 0
-2 -15 -53 0
16 17 53 0
-16 -17 -53 0
17 32 53 0
-17 -32 -53 0
18 47 53 0
-18 -47 -53 0
3 15 54 0
-3 -15 -54 0
16 18 54 0
-16 -18 -54 0
17 33 54 0
-17 -33 -54 0
18 48 54 0
-18 -48 -54 0
4 15 55 0
-4 -15 -55 0
16 19 55 0
-16 -19 -55 0
17 34 55 0
-17 -34 -55 0
18 49 55 0
-18 -49 -55 0
5 15 56 0
-5 -15 -56 0
16 20 56 0
-16 -20 -56 0
17 35 56 0
-17 -35 -56 0
18 50 56 0
-18 -50 -56 0
6 15 57 0
-6 -15 -57 0
16 21 57 0
-16 -21 -57 0
17 36 57 0
-17 -36 -57 0
18 51 57 0
-18 -51 -57 0
7 15 58 0
-7 -15 -58 0
16 22 58 0
-16 -22 -58 0
17 37 58 0
-17 -37 -58 0
18 52 58 0
-18 -52 -58 0
