certificates/rado_a15_c276_N58.drat
-52 -55 -58 0
-55 -56 -58 0
52 -56 -58 0
-56 -58 0
d -55 -56 -58 0
-52 -58 0
d -52 -55 -58 0
21 -58 0
-58 0
52 0
-16 0
22 0
10 0
-19 0
28 0
7 0
21 0
49 0
55 0
25 0
-20 0
-18 0
-17 0
-46 0
-13 0
0
